Route #1: 1 42 19 34 15 48 24 35 59 1
Route #2: 1 17 21 26 47 4 41 12 5 22 32 50 3 1
Route #3: 1 53 39 60 20 56 36 16 40 51 1
Route #4: 1 44 57 13 52 10 33 28 38 1
Route #5: 1 8 30 14 9 27 1
Route #6: 1 7 29 45 2 37 11 55 1
Route #7: 1 25 49 23 6 1
Route #8: 1 54 31 43 46 1
Route #9: 1 18 58 1
cost 1624
